100100111100101001011010110111010110001110110010000011101111101101000111101001110110100110101000011101110000110100011011111111000011011101011111110010010110011000111001001001000111010111111110100000011101101110101100110111001100011111111111001100001000000100010111111100011110100111000000010100101011100111101001010100110100001001100100110010101101000010111111000000101110010100110110101011000101011011110010111001001110011111000111110010101100000100000001100000011101011001111001000000101100001000101001110000110010010011010100000110011010100010110000110101111010110111000101110010010001110111001110010100010010101110000000100101110100111001000111100001101010110110011111110100011110110101000101110010010110011111111011010001010111101010000010111010000000000001111001110111110000110110011011011011101001011101100011001001011101000100101111011001001011101001011011101000000000110000110101111110000000010000001010001110001111000000011010110111010000100001001010101001100101001000110000100001100011001001100110011111011001101100111110001010110000011100101100